750
125 125
1 100 784
2 100 345
3 100 780
4 100 75
5 100 367
6 100 354
7 100 696
8 100 711
9 99 620
10 99 209
11 99 659
12 99 586
13 99 375
14 99 390
15 99 252
16 99 982
17 99 981
18 98 24
19 98 104
20 98 904
21 98 696
22 98 448
23 98 673
24 98 100
25 98 359
26 98 538
27 98 555
28 98 183
29 97 980
30 97 794
31 97 53
32 97 222
33 97 839
34 97 244
35 97 799
36 97 582
37 97 240
38 97 564
39 97 699
40 97 342
41 97 592
42 97 396
43 97 605
44 97 105
45 97 236
46 97 703
47 97 345
48 96 581
49 96 260
50 96 2
51 96 965
52 96 979
53 96 479
54 96 106
55 96 85
56 96 195
57 96 850
58 95 471
59 95 349
60 95 744
61 95 263
62 95 62
63 95 747
64 95 453
65 94 588
66 94 54
67 94 545
68 94 666
69 94 354
70 94 594
71 94 378
72 94 735
73 94 576
74 94 275
75 93 201
76 93 843
77 93 241
78 93 170
79 93 651
80 93 506
81 93 527
82 93 518
83 92 449
84 92 865
85 92 394
86 92 291
87 92 11
88 92 100
89 92 379
90 92 177
91 92 234
92 92 458
93 92 818
94 92 527
95 92 741
96 91 472
97 91 644
98 91 468
99 91 200
100 91 988
101 91 512
102 91 628
103 91 713
104 91 922
105 91 721
106 91 671
107 91 634
108 91 635
109 90 408
110 90 833
111 90 25
112 90 508
113 90 172
114 90 242
115 89 829
116 89 714
117 89 652
118 89 380
119 89 922
120 89 880
121 89 1
122 89 757
123 89 974
124 89 365
125 89 986
126 89 755
127 88 464
128 88 746
129 88 2
130 88 971
131 88 753
132 88 979
133 87 419
134 87 252
135 87 204
136 86 688
137 86 519
138 86 305
139 85 164
140 85 973
141 85 976
142 85 971
143 85 184
144 85 491
145 85 822
146 85 416
147 85 702
148 84 497
149 84 8
150 84 473
151 84 311
152 84 682
153 84 473
154 84 788
155 84 705
156 83 217
157 83 751
158 83 1
159 83 879
160 83 600
161 83 748
162 83 278
163 83 93
164 83 809
165 83 249
166 83 966
167 83 948
168 83 289
169 82 60
170 82 606
171 82 926
172 82 413
173 82 320
174 82 652
175 82 443
176 82 337
177 81 324
178 81 875
179 81 424
180 81 946
181 81 442
182 81 509
183 81 599
184 81 358
185 81 510
186 81 600
187 81 305
188 81 809
189 80 625
190 80 678
191 80 791
192 80 176
193 80 856
194 80 80
195 80 396
196 80 184
197 79 93
198 79 885
199 79 175
200 79 105
201 79 392
202 78 838
203 78 20
204 78 255
205 78 79
206 78 432
207 78 43
208 78 697
209 78 592
210 78 766
211 78 833
212 78 446
213 78 882
214 78 120
215 77 858
216 77 688
217 77 919
218 77 782
219 77 872
220 76 440
221 76 315
222 76 457
223 76 819
224 76 826
225 76 711
226 76 842
227 76 835
228 76 922
229 76 884
230 76 581
231 75 792
232 75 764
233 75 592
234 75 121
235 75 830
236 75 46
237 75 135
238 75 459
239 75 967
240 75 573
241 74 730
242 74 846
243 74 210
244 74 845
245 73 66
246 73 633
247 73 970
248 73 302
249 73 191
250 73 638
251 73 37
252 73 700
253 73 759
254 73 149
255 73 433
256 72 378
257 72 331
258 72 496
259 72 261
260 72 198
261 72 527
262 72 210
263 72 224
264 72 832
265 72 487
266 72 476
267 71 459
268 71 952
269 71 324
270 71 538
271 71 306
272 71 839
273 71 527
274 71 547
275 71 220
276 71 619
277 71 345
278 71 863
279 71 896
280 71 593
281 71 821
282 71 169
283 71 836
284 70 67
285 70 582
286 70 90
287 70 538
288 70 951
289 70 364
290 70 396
291 70 591
292 70 70
293 70 576
294 70 194
295 70 410
296 70 671
297 70 487
298 69 491
299 69 205
300 69 183
301 69 837
302 69 558
303 69 231
304 68 88
305 68 948
306 68 960
307 68 222
308 68 575
309 68 881
310 68 669
311 68 918
312 68 806
313 68 949
314 68 420
315 67 321
316 67 598
317 67 56
318 67 253
319 67 598
320 67 874
321 67 401
322 67 267
323 67 643
324 67 461
325 66 555
326 66 435
327 66 494
328 66 184
329 66 339
330 66 588
331 66 746
332 65 94
333 65 835
334 65 907
335 65 49
336 65 215
337 64 338
338 64 961
339 64 72
340 64 505
341 64 812
342 64 83
343 64 561
344 64 791
345 64 74
346 64 136
347 64 800
348 64 731
349 64 240
350 63 950
351 63 551
352 63 247
353 63 640
354 63 50
355 63 688
356 63 156
357 63 214
358 63 474
359 63 371
360 62 957
361 62 920
362 62 474
363 62 548
364 62 776
365 62 309
366 62 233
367 62 707
368 62 812
369 61 938
370 61 306
371 61 932
372 61 547
373 61 771
374 61 301
375 60 159
376 60 476
377 60 862
378 60 68
379 60 734
380 60 130
381 60 378
382 60 545
383 60 833
384 60 330
385 60 999
386 60 374
387 60 696
388 60 498
389 59 741
390 59 83
391 59 671
392 59 594
393 59 207
394 59 442
395 59 624
396 59 12
397 59 227
398 59 107
399 59 724
400 58 990
401 58 450
402 58 849
403 58 369
404 58 283
405 58 366
406 58 886
407 58 592
408 58 666
409 58 953
410 58 61
411 57 496
412 57 90
413 57 134
414 57 145
415 57 41
416 57 768
417 57 268
418 56 973
419 56 65
420 56 169
421 56 38
422 56 870
423 56 286
424 56 78
425 56 512
426 55 406
427 55 1
428 55 213
429 55 96
430 55 508
431 55 117
432 55 554
433 55 758
434 55 466
435 55 933
436 54 644
437 54 595
438 54 147
439 54 477
440 54 322
441 54 500
442 54 628
443 54 148
444 54 302
445 54 540
446 54 334
447 54 507
448 53 722
449 53 815
450 53 387
451 53 37
452 53 687
453 53 495
454 53 18
455 53 797
456 53 198
457 53 945
458 53 688
459 53 618
460 53 216
461 52 486
462 52 701
463 52 521
464 52 482
465 52 417
466 52 170
467 52 922
468 52 253
469 52 949
470 52 427
471 51 539
472 51 380
473 51 172
474 51 547
475 51 358
476 51 641
477 51 162
478 51 887
479 51 572
480 50 693
481 50 447
482 50 120
483 50 393
484 50 496
485 50 772
486 50 973
487 50 155
488 50 8
489 50 796
490 50 333
491 50 736
492 49 546
493 49 246
494 49 504
495 49 874
496 49 202
497 49 588
498 49 566
499 49 23
500 49 694
501 48 968
502 48 386
503 48 492
504 48 737
505 48 980
506 48 673
507 48 514
508 48 356
509 48 517
510 48 123
511 48 965
512 48 171
513 48 197
514 47 737
515 47 76
516 47 208
517 47 406
518 47 402
519 47 431
520 47 959
521 47 40
522 46 603
523 46 870
524 46 508
525 46 489
526 46 561
527 46 386
528 46 831
529 46 52
530 46 914
531 45 72
532 45 622
533 45 163
534 45 911
535 45 376
536 44 548
537 44 550
538 44 238
539 44 287
540 44 984
541 44 295
542 44 817
543 44 408
544 43 445
545 43 876
546 43 248
547 43 266
548 43 435
549 43 788
550 43 425
551 43 27
552 43 145
553 43 430
554 43 790
555 42 180
556 42 450
557 42 739
558 42 797
559 42 957
560 42 778
561 42 898
562 42 758
563 42 866
564 42 363
565 42 724
566 41 606
567 41 547
568 41 119
569 41 764
570 41 102
571 41 730
572 41 799
573 41 273
574 41 601
575 41 183
576 40 584
577 40 325
578 40 907
579 40 45
580 40 170
581 40 278
582 40 68
583 40 184
584 39 38
585 39 139
586 39 970
587 39 644
588 39 730
589 39 853
590 39 782
591 39 455
592 39 387
593 39 159
594 39 798
595 39 755
596 39 866
597 39 556
598 38 845
599 38 361
600 38 681
601 38 652
602 38 710
603 38 697
604 38 36
605 38 331
606 37 221
607 37 636
608 37 745
609 37 812
610 37 92
611 37 822
612 37 521
613 37 148
614 37 958
615 37 123
616 37 20
617 37 598
618 37 14
619 37 115
620 36 761
621 36 76
622 36 211
623 36 553
624 36 115
625 36 97
626 36 177
627 36 192
628 35 324
629 35 761
630 35 562
631 35 132
632 35 610
633 35 79
634 35 972
635 35 821
636 34 548
637 34 868
638 34 684
639 34 73
640 34 863
641 34 185
642 34 576
643 34 47
644 34 773
645 34 310
646 34 229
647 34 759
648 34 258
649 33 186
650 33 256
651 33 696
652 33 713
653 33 242
654 33 352
655 33 282
656 33 956
657 33 219
658 33 220
659 33 457
660 33 937
661 33 440
662 33 486
663 32 559
664 32 89
665 32 793
666 32 271
667 32 82
668 32 206
669 32 710
670 32 166
671 32 65
672 32 450
673 31 425
674 31 594
675 31 172
676 31 788
677 31 596
678 31 836
679 31 934
680 31 162
681 31 360
682 31 388
683 31 632
684 31 248
685 31 749
686 30 541
687 30 486
688 30 891
689 30 609
690 30 481
691 30 965
692 30 838
693 30 459
694 30 275
695 30 460
696 30 977
697 29 233
698 29 110
699 29 356
700 29 547
701 29 514
702 29 652
703 29 235
704 29 730
705 29 765
706 28 626
707 28 578
708 28 158
709 28 946
710 28 984
711 28 539
712 28 879
713 28 926
714 28 549
715 28 392
716 28 892
717 28 711
718 28 709
719 28 922
720 27 949
721 27 687
722 27 687
723 27 701
724 27 333
725 27 99
726 27 634
727 27 564
728 27 650
729 27 197
730 26 376
731 26 785
732 26 539
733 26 767
734 26 263
735 26 742
736 26 936
737 26 722
738 26 932
739 26 346
740 26 819
741 26 42
742 25 163
743 25 935
744 25 781
745 25 5
746 25 547
747 25 401
748 25 515
749 25 226
750 25 618
